p cnf 36 446
c at least one value
1 2 3 4 5 0
6 7 8 9 10 0
11 12 13 14 15 0
16 17 18 19 20 0
21 22 23 24 0
25 26 27 28 0
29 30 31 32 0
33 34 35 36 0
c at most one value
-1 -2 0
-1 -3 0
-1 -4 0
-1 -5 0
-2 -3 0
-2 -4 0
-2 -5 0
-3 -4 0
-3 -5 0
-4 -5 0
-6 -7 0
-6 -8 0
-6 -9 0
-6 -10 0
-7 -8 0
-7 -9 0
-7 -10 0
-8 -9 0
-8 -10 0
-9 -10 0
-11 -12 0
-11 -13 0
-11 -14 0
-11 -15 0
-12 -13 0
-12 -14 0
-12 -15 0
-13 -14 0
-13 -15 0
-14 -15 0
-16 -17 0
-16 -18 0
-16 -19 0
-16 -20 0
-17 -18 0
-17 -19 0
-17 -20 0
-18 -19 0
-18 -20 0
-19 -20 0
-21 -22 0
-21 -23 0
-21 -24 0
-22 -23 0
-22 -24 0
-23 -24 0
-25 -26 0
-25 -27 0
-25 -28 0
-26 -27 0
-26 -28 0
-27 -28 0
-29 -30 0
-29 -31 0
-29 -32 0
-30 -31 0
-30 -32 0
-31 -32 0
-33 -34 0
-33 -35 0
-33 -36 0
-34 -35 0
-34 -36 0
-35 -36 0
c graceful clauses
-1 -6 -21 0
-1 -6 -22 0
-1 -6 -23 0
-1 -6 -24 0
-1 -7 -22 0
-1 -7 -23 0
-1 -7 -24 0
-1 -8 -21 0
-1 -8 -23 0
-1 -8 -24 0
-1 -9 -21 0
-1 -9 -22 0
-1 -9 -24 0
-1 -10 -21 0
-1 -10 -22 0
-1 -10 -23 0
-2 -6 -22 0
-2 -6 -23 0
-2 -6 -24 0
-2 -7 -21 0
-2 -7 -22 0
-2 -7 -23 0
-2 -7 -24 0
-2 -8 -22 0
-2 -8 -23 0
-2 -8 -24 0
-2 -9 -21 0
-2 -9 -23 0
-2 -9 -24 0
-2 -10 -21 0
-2 -10 -22 0
-2 -10 -24 0
-3 -6 -21 0
-3 -6 -23 0
-3 -6 -24 0
-3 -7 -22 0
-3 -7 -23 0
-3 -7 -24 0
-3 -8 -21 0
-3 -8 -22 0
-3 -8 -23 0
-3 -8 -24 0
-3 -9 -22 0
-3 -9 -23 0
-3 -9 -24 0
-3 -10 -21 0
-3 -10 -23 0
-3 -10 -24 0
-4 -6 -21 0
-4 -6 -22 0
-4 -6 -24 0
-4 -7 -21 0
-4 -7 -23 0
-4 -7 -24 0
-4 -8 -22 0
-4 -8 -23 0
-4 -8 -24 0
-4 -9 -21 0
-4 -9 -22 0
-4 -9 -23 0
-4 -9 -24 0
-4 -10 -22 0
-4 -10 -23 0
-4 -10 -24 0
-5 -6 -21 0
-5 -6 -22 0
-5 -6 -23 0
-5 -7 -21 0
-5 -7 -22 0
-5 -7 -24 0
-5 -8 -21 0
-5 -8 -23 0
-5 -8 -24 0
-5 -9 -22 0
-5 -9 -23 0
-5 -9 -24 0
-5 -10 -21 0
-5 -10 -22 0
-5 -10 -23 0
-5 -10 -24 0
-1 -16 -25 0
-1 -16 -26 0
-1 -16 -27 0
-1 -16 -28 0
-1 -17 -26 0
-1 -17 -27 0
-1 -17 -28 0
-1 -18 -25 0
-1 -18 -27 0
-1 -18 -28 0
-1 -19 -25 0
-1 -19 -26 0
-1 -19 -28 0
-1 -20 -25 0
-1 -20 -26 0
-1 -20 -27 0
-2 -16 -26 0
-2 -16 -27 0
-2 -16 -28 0
-2 -17 -25 0
-2 -17 -26 0
-2 -17 -27 0
-2 -17 -28 0
-2 -18 -26 0
-2 -18 -27 0
-2 -18 -28 0
-2 -19 -25 0
-2 -19 -27 0
-2 -19 -28 0
-2 -20 -25 0
-2 -20 -26 0
-2 -20 -28 0
-3 -16 -25 0
-3 -16 -27 0
-3 -16 -28 0
-3 -17 -26 0
-3 -17 -27 0
-3 -17 -28 0
-3 -18 -25 0
-3 -18 -26 0
-3 -18 -27 0
-3 -18 -28 0
-3 -19 -26 0
-3 -19 -27 0
-3 -19 -28 0
-3 -20 -25 0
-3 -20 -27 0
-3 -20 -28 0
-4 -16 -25 0
-4 -16 -26 0
-4 -16 -28 0
-4 -17 -25 0
-4 -17 -27 0
-4 -17 -28 0
-4 -18 -26 0
-4 -18 -27 0
-4 -18 -28 0
-4 -19 -25 0
-4 -19 -26 0
-4 -19 -27 0
-4 -19 -28 0
-4 -20 -26 0
-4 -20 -27 0
-4 -20 -28 0
-5 -16 -25 0
-5 -16 -26 0
-5 -16 -27 0
-5 -17 -25 0
-5 -17 -26 0
-5 -17 -28 0
-5 -18 -25 0
-5 -18 -27 0
-5 -18 -28 0
-5 -19 -26 0
-5 -19 -27 0
-5 -19 -28 0
-5 -20 -25 0
-5 -20 -26 0
-5 -20 -27 0
-5 -20 -28 0
-6 -11 -29 0
-6 -11 -30 0
-6 -11 -31 0
-6 -11 -32 0
-6 -12 -30 0
-6 -12 -31 0
-6 -12 -32 0
-6 -13 -29 0
-6 -13 -31 0
-6 -13 -32 0
-6 -14 -29 0
-6 -14 -30 0
-6 -14 -32 0
-6 -15 -29 0
-6 -15 -30 0
-6 -15 -31 0
-7 -11 -30 0
-7 -11 -31 0
-7 -11 -32 0
-7 -12 -29 0
-7 -12 -30 0
-7 -12 -31 0
-7 -12 -32 0
-7 -13 -30 0
-7 -13 -31 0
-7 -13 -32 0
-7 -14 -29 0
-7 -14 -31 0
-7 -14 -32 0
-7 -15 -29 0
-7 -15 -30 0
-7 -15 -32 0
-8 -11 -29 0
-8 -11 -31 0
-8 -11 -32 0
-8 -12 -30 0
-8 -12 -31 0
-8 -12 -32 0
-8 -13 -29 0
-8 -13 -30 0
-8 -13 -31 0
-8 -13 -32 0
-8 -14 -30 0
-8 -14 -31 0
-8 -14 -32 0
-8 -15 -29 0
-8 -15 -31 0
-8 -15 -32 0
-9 -11 -29 0
-9 -11 -30 0
-9 -11 -32 0
-9 -12 -29 0
-9 -12 -31 0
-9 -12 -32 0
-9 -13 -30 0
-9 -13 -31 0
-9 -13 -32 0
-9 -14 -29 0
-9 -14 -30 0
-9 -14 -31 0
-9 -14 -32 0
-9 -15 -30 0
-9 -15 -31 0
-9 -15 -32 0
-10 -11 -29 0
-10 -11 -30 0
-10 -11 -31 0
-10 -12 -29 0
-10 -12 -30 0
-10 -12 -32 0
-10 -13 -29 0
-10 -13 -31 0
-10 -13 -32 0
-10 -14 -30 0
-10 -14 -31 0
-10 -14 -32 0
-10 -15 -29 0
-10 -15 -30 0
-10 -15 -31 0
-10 -15 -32 0
-11 -16 -33 0
-11 -16 -34 0
-11 -16 -35 0
-11 -16 -36 0
-11 -17 -34 0
-11 -17 -35 0
-11 -17 -36 0
-11 -18 -33 0
-11 -18 -35 0
-11 -18 -36 0
-11 -19 -33 0
-11 -19 -34 0
-11 -19 -36 0
-11 -20 -33 0
-11 -20 -34 0
-11 -20 -35 0
-12 -16 -34 0
-12 -16 -35 0
-12 -16 -36 0
-12 -17 -33 0
-12 -17 -34 0
-12 -17 -35 0
-12 -17 -36 0
-12 -18 -34 0
-12 -18 -35 0
-12 -18 -36 0
-12 -19 -33 0
-12 -19 -35 0
-12 -19 -36 0
-12 -20 -33 0
-12 -20 -34 0
-12 -20 -36 0
-13 -16 -33 0
-13 -16 -35 0
-13 -16 -36 0
-13 -17 -34 0
-13 -17 -35 0
-13 -17 -36 0
-13 -18 -33 0
-13 -18 -34 0
-13 -18 -35 0
-13 -18 -36 0
-13 -19 -34 0
-13 -19 -35 0
-13 -19 -36 0
-13 -20 -33 0
-13 -20 -35 0
-13 -20 -36 0
-14 -16 -33 0
-14 -16 -34 0
-14 -16 -36 0
-14 -17 -33 0
-14 -17 -35 0
-14 -17 -36 0
-14 -18 -34 0
-14 -18 -35 0
-14 -18 -36 0
-14 -19 -33 0
-14 -19 -34 0
-14 -19 -35 0
-14 -19 -36 0
-14 -20 -34 0
-14 -20 -35 0
-14 -20 -36 0
-15 -16 -33 0
-15 -16 -34 0
-15 -16 -35 0
-15 -17 -33 0
-15 -17 -34 0
-15 -17 -36 0
-15 -18 -33 0
-15 -18 -35 0
-15 -18 -36 0
-15 -19 -34 0
-15 -19 -35 0
-15 -19 -36 0
-15 -20 -33 0
-15 -20 -34 0
-15 -20 -35 0
-15 -20 -36 0
c create alldiff
-1 -6 0
-2 -7 0
-3 -8 0
-4 -9 0
-5 -10 0
-1 -11 0
-2 -12 0
-3 -13 0
-4 -14 0
-5 -15 0
-1 -16 0
-2 -17 0
-3 -18 0
-4 -19 0
-5 -20 0
-6 -11 0
-7 -12 0
-8 -13 0
-9 -14 0
-10 -15 0
-6 -16 0
-7 -17 0
-8 -18 0
-9 -19 0
-10 -20 0
-11 -16 0
-12 -17 0
-13 -18 0
-14 -19 0
-15 -20 0
c create alldiff
-21 -25 0
-22 -26 0
-23 -27 0
-24 -28 0
-21 -29 0
-22 -30 0
-23 -31 0
-24 -32 0
-21 -33 0
-22 -34 0
-23 -35 0
-24 -36 0
-25 -29 0
-26 -30 0
-27 -31 0
-28 -32 0
-25 -33 0
-26 -34 0
-27 -35 0
-28 -36 0
-29 -33 0
-30 -34 0
-31 -35 0
-32 -36 0
